problem_generation/data/GISP/train/er_n=66_m=1308_p=0.60_SET2_setparam=100.00_alpha=0.50_533.lp
maximize
OBJ:100x0 + 100x1 + 100x2 + 100x3 + 100x4 + 100x5 + 100x6 + 100x7 + 100x8 + 100x9 + 100x10 + 100x11 + 100x12 + 100x13 + 100x14 + 100x15 + 100x16 + 100x17 + 100x18 + 100x19 + 100x20 + 100x21 + 100x22 + 100x23 + 100x24 + 100x25 + 100x26 + 100x27 + 100x28 + 100x29 + 100x30 + 100x31 + 100x32 + 100x33 + 100x34 + 100x35 + 100x36 + 100x37 + 100x38 + 100x39 + 100x40 + 100x41 + 100x42 + 100x43 + 100x44 + 100x45 + 100x46 + 100x47 + 100x48 + 100x49 + 100x50 + 100x51 + 100x52 + 100x53 + 100x54 + 100x55 + 100x56 + 100x57 + 100x58 + 100x59 + 100x60 + 100x61 + 100x62 + 100x63 + 100x64 + 100x65 - y15_21 - y7_17 - y26_30 - y18_26 - y36_62 - y26_39 - y18_35 - y11_14 - y11_23 - y21_55 - y21_64 - y33_47 - y44_56 - y3_15 - y10_63 - y2_59 - y25_61 - y32_60 - y14_33 - y24_65 - y15_16 - y47_57 - y17_53 - y28_53 - y28_62 - y29_36 - y0_9 - y6_43 - y29_45 - y21_41 - y40_45 - y48_58 - y29_63 - y21_59 - y25_29 - y2_36 - y25_38 - y3_19 - y43_55 - y14_28 - y43_64 - y13_60 - y35_60 - y17_39 - y47_52 - y55_65 - y17_48 - y59_63 - y5_55 - y9_53 - y5_64 - y29_31 - y48_53 - y6_47 - y21_45 - y6_56 - y2_13 - y10_26 - y39_62 - y2_22 - y54_60 - y32_50 - y22_27 - y13_46 - y1_53 - y35_55 - y14_32 - y16_51 - y1_62 - y13_64 - y24_64 - y35_64 - y17_34 - y36_47 - y5_41 - y17_43 - y36_56 - y36_65 - y9_48 - y47_65 - y6_24 - y6_33 - y29_44 - y6_51 - y10_12 - y39_48 - y54_64 - y32_36 - y3_9 - y24_41 - y3_18 - y13_50 - y43_63 - y1_57 - y24_59 - y17_20 - y9_25 - y9_43 - y5_54 - y6_19 - y17_56 - y9_52 - y28_56 - y50_53 - y21_26 - y42_58 - y19_65 - y30_65 - y54_59 - y23_53 - y2_30 - y12_62 - y4_58 - y32_49 - y16_32 - y1_43 - y16_41 - y13_54 - y1_61 - y13_63 - y35_63 - y17_24 - y46_60 - y9_20 - y17_33 - y28_33 - y38_65 - y17_42 - y28_42 - y5_58 - y6_32 - y8_51 - y42_53 - y19_60 - y42_62 - y20_34 - y31_34 - y11_65 - y12_48 - y20_61 - y54_63 - y23_57 - y4_53 - y1_29 - y4_62 - y13_40 - y43_53 - y16_36 - y1_47 - y35_58 - y17_19 - y38_51 - y38_60 - y7_63 - y27_41 - y6_18 - y27_50 - y8_46 - y8_55 - y19_55 - y11_51 - y0_60 - y12_25 - y39_42 - y12_34 - y23_34 - y2_11 - y20_47 - y23_43 - y31_56 - y4_39 - y12_52 - y1_15 - y31_65 - y4_57 - y16_31 - y1_42 - y13_44 - y49_55 - y5_30 - y26_62 - y49_64 - y5_39 - y18_58 - y6_13 - y8_32 - y42_43 - y8_50 - y8_59 - y30_59 - y0_55 - y11_55 - y4_25 - y12_38 - y31_51 - y12_47 - y23_47 - y4_43 - y23_56 - y13_21 - y53_57 - y4_52 - y34_53 - y45_53 - y5_16 - y9_14 - y26_57 - y7_53 - y18_62 - y19_27 - y50_51 - y30_45 - y42_47 - y0_41 - y8_54 - y0_50 - y39_41 - y12_33 - y12_42 - y4_47 - y34_48 - y1_23 - y53_61 - y16_21 - y22_55 - y34_57 - y37_53 - y22_64 - y37_62 - y15_34 - y46_49 - y38_45 - y46_58 - y7_39 - y15_52 - y26_52 - y18_48 - y15_61 - y38_63 - y19_22 - y19_31 - y27_44 - y11_27 - y27_53 - y11_36 - y30_49 - y11_45 - y11_54 - y41_55 - y4_24 - y33_60 - y12_37 - y44_60 - y4_33 - y25_65 - y1_18 - y37_39 - y53_56 - y53_65 - y45_61 - y56_61 - y14_55 - y37_57 - y14_64 - y18_25 - y15_38 - y7_34 - y15_47 - y7_43 - y15_56 - y26_56 - y8_17 - y8_26 - y11_22 - y30_35 - y0_40 - y4_10 - y44_46 - y12_23 - y44_64 - y22_36 - y34_38 - y1_13 - y22_45 - y3_50 - y56_65 - y3_59 - y26_42 - y26_51 - y7_47 - y48_57 - y40_53 - y8_30 - y40_62 - y21_58 - y0_35 - y41_45 - y33_41 - y25_37 - y4_14 - y10_48 - y33_50 - y41_63 - y22_31 - y22_40 - y34_42 - y3_36 - y37_47 - y3_63 - y15_28 - y26_28 - y7_24 - y18_24 - y15_37 - y26_37 - y47_60 - y59_62 - y26_46 - y7_42 - y0_3 - y29_39 - y11_12 - y21_44 - y0_21 - y2_39 - y2_48 - y3_13 - y10_61 - y22_35 - y14_40 - y15_23 - y18_19 - y36_55 - y15_32 - y36_64 - y28_60 - y9_56 - y29_34 - y8_11 - y0_7 - y40_43 - y21_39 - y0_16 - y11_16 - y29_52 - y21_57 - y2_43 - y3_8 - y10_56 - y51_57 - y32_53 - y2_61 - y3_26 - y32_62 - y22_39 - y36_41 - y15_18 - y7_14 - y36_50 - y47_50 - y17_46 - y28_46 - y47_59 - y9_42 - y17_55 - y9_51 - y6_36 - y21_43 - y6_54 - y29_56 - y10_24 - y33_35 - y20_65 - y10_42 - y22_25 - y43_57 - y35_53 - y3_30 - y16_58 - y47_54 - y17_50 - y28_50 - y6_22 - y58_60 - y29_33 - y9_64 - y61_65 - y29_42 - y40_42 - y21_38 - y6_49 - y29_51 - y21_47 - y2_6 - y25_26 - y31_60 - y2_33 - y25_35 - y32_34 - y23_65 - y3_7 - y35_39 - y51_65 - y13_48 - y13_57 - y24_57 - y17_18 - y1_64 - y5_34 - y28_36 - y5_43 - y17_45 - y47_58 - y5_52 - y6_17 - y17_54 - y28_54 - y5_61 - y58_64 - y6_35 - y39_50 - y2_10 - y20_46 - y10_23 - y31_46 - y39_59 - y54_57 - y20_64 - y3_11 - y13_52 - y16_48 - y1_59 - y13_61 - y24_61 - y35_61 - y17_31 - y9_27 - y9_36 - y6_12 - y50_55 - y42_51 - y21_28 - y8_58 - y39_45 - y20_41 - y2_14 - y39_63 - y2_23 - y13_20 - y4_51 - y13_29 - y24_29 - y32_42 - y16_25 - y1_36 - y32_51 - y16_34 - y1_45 - y16_43 - y24_56 - y9_13 - y57_62 - y5_33 - y17_35 - y6_7 - y9_40 - y6_16 - y42_46 - y27_57 - y50_59 - y8_53 - y39_40 - y31_36 - y39_49 - y2_9 - y23_41 - y2_18 - y31_54 - y54_56 - y23_50 - y31_63 - y23_59 - y1_22 - y4_55 - y24_33 - y45_65 - y1_40 - y24_42 - y16_47 - y5_10 - y46_48 - y46_57 - y49_53 - y5_28 - y15_60 - y38_62 - y5_37 - y6_11 - y27_43 - y8_39 - y19_48 - y50_63 - y0_44 - y11_44 - y19_57 - y30_57 - y39_44 - y12_36 - y23_45 - y20_58 - y4_41 - y12_54 - y4_50 - y23_63 - y13_28 - y16_24 - y45_60 - y16_33 - y1_44 - y37_65 - y16_42 - y5_14 - y9_12 - y38_48 - y9_21 - y26_55 - y5_32 - y18_51 - y15_64 - y27_38 - y8_43 - y11_39 - y19_52 - y42_54 - y27_65 - y19_61 - y20_26 - y0_57 - y20_44 - y12_40 - y12_49 - y34_46 - y53_59 - y4_54 - y34_55 - y56_64 - y14_58 - y5_9 - y46_47 - y15_41 - y26_50 - y26_59 - y38_61 - y7_55 - y27_33 - y18_64 - y11_25 - y8_38 - y0_34 - y11_43 - y8_56 - y30_56 - y0_52 - y41_62 - y52_62 - y12_35 - y1_7 - y34_59 - y45_59 - y37_55 - y3_62 - y14_62 - y26_27 - y5_13 - y46_51 - y15_45 - y18_41 - y8_15 - y27_28 - y7_59 - y19_42 - y30_42 - y30_51 - y60_61 - y12_21 - y52_57 - y12_30 - y23_30 - y25_49 - y33_62 - y44_62 - y1_2 - y25_58 - y4_35 - y22_34 - y1_20 - y3_39 - y53_58 - y22_52 - y14_48 - y45_63 - y14_57 - y37_49 - y38_42 - y7_36 - y7_45 - y0_6 - y48_55 - y0_15 - y11_15 - y8_28 - y18_63 - y11_24 - y29_60 - y11_42 - y12_16 - y4_12 - y44_48 - y52_61 - y25_44 - y2_51 - y10_64 - y1_6 - y34_40 - y45_49 - y22_56 - y45_58 - y14_52 - y22_65 - y7_13 - y59_60 - y0_1 - y18_49 - y8_14 - y48_59 - y6_53 - y29_64 - y40_64 - y21_60 - y25_30 - y52_56 - y4_16 - y41_65 - y2_46 - y10_59 - y33_61 - y44_61 - y22_33 - y3_38 - y37_40 - y3_47
 Subject to
C1: x0+x1-y0_1 <=1 
C2: x0+x3-y0_3 <=1 
C3: x0+x4 <=1 
C4: x0+x5 <=1 
C5: x0+x6-y0_6 <=1 
C6: x0+x7-y0_7 <=1 
C7: x0+x8 <=1 
C8: x0+x9-y0_9 <=1 
C9: x0+x11 <=1 
C10: x0+x13 <=1 
C11: x0+x15-y0_15 <=1 
C12: x0+x16-y0_16 <=1 
C13: x0+x17 <=1 
C14: x0+x21-y0_21 <=1 
C15: x0+x22 <=1 
C16: x0+x23 <=1 
C17: x0+x28 <=1 
C18: x0+x30 <=1 
C19: x0+x32 <=1 
C20: x0+x34-y0_34 <=1 
C21: x0+x35-y0_35 <=1 
C22: x0+x38 <=1 
C23: x0+x39 <=1 
C24: x0+x40-y0_40 <=1 
C25: x0+x41-y0_41 <=1 
C26: x0+x43 <=1 
C27: x0+x44-y0_44 <=1 
C28: x0+x45 <=1 
C29: x0+x46 <=1 
C30: x0+x47 <=1 
C31: x0+x48 <=1 
C32: x0+x49 <=1 
C33: x0+x50-y0_50 <=1 
C34: x0+x52-y0_52 <=1 
C35: x0+x53 <=1 
C36: x0+x54 <=1 
C37: x0+x55-y0_55 <=1 
C38: x0+x57-y0_57 <=1 
C39: x0+x58 <=1 
C40: x0+x60-y0_60 <=1 
C41: x0+x63 <=1 
C42: x0+x64 <=1 
C43: x1+x2-y1_2 <=1 
C44: x1+x4 <=1 
C45: x1+x6-y1_6 <=1 
C46: x1+x7-y1_7 <=1 
C47: x1+x9 <=1 
C48: x1+x13-y1_13 <=1 
C49: x1+x15-y1_15 <=1 
C50: x1+x16 <=1 
C51: x1+x17 <=1 
C52: x1+x18-y1_18 <=1 
C53: x1+x20-y1_20 <=1 
C54: x1+x22-y1_22 <=1 
C55: x1+x23-y1_23 <=1 
C56: x1+x25 <=1 
C57: x1+x29-y1_29 <=1 
C58: x1+x30 <=1 
C59: x1+x32 <=1 
C60: x1+x33 <=1 
C61: x1+x35 <=1 
C62: x1+x36-y1_36 <=1 
C63: x1+x37 <=1 
C64: x1+x39 <=1 
C65: x1+x40-y1_40 <=1 
C66: x1+x41 <=1 
C67: x1+x42-y1_42 <=1 
C68: x1+x43-y1_43 <=1 
C69: x1+x44-y1_44 <=1 
C70: x1+x45-y1_45 <=1 
C71: x1+x46 <=1 
C72: x1+x47-y1_47 <=1 
C73: x1+x48 <=1 
C74: x1+x51 <=1 
C75: x1+x53-y1_53 <=1 
C76: x1+x55 <=1 
C77: x1+x57-y1_57 <=1 
C78: x1+x58 <=1 
C79: x1+x59-y1_59 <=1 
C80: x1+x60 <=1 
C81: x1+x61-y1_61 <=1 
C82: x1+x62-y1_62 <=1 
C83: x1+x64-y1_64 <=1 
C84: x1+x65 <=1 
C85: x2+x5 <=1 
C86: x2+x6-y2_6 <=1 
C87: x2+x7 <=1 
C88: x2+x9-y2_9 <=1 
C89: x2+x10-y2_10 <=1 
C90: x2+x11-y2_11 <=1 
C91: x2+x13-y2_13 <=1 
C92: x2+x14-y2_14 <=1 
C93: x2+x18-y2_18 <=1 
C94: x2+x21 <=1 
C95: x2+x22-y2_22 <=1 
C96: x2+x23-y2_23 <=1 
C97: x2+x24 <=1 
C98: x2+x25 <=1 
C99: x2+x26 <=1 
C100: x2+x30-y2_30 <=1 
C101: x2+x32 <=1 
C102: x2+x33-y2_33 <=1 
C103: x2+x34 <=1 
C104: x2+x36-y2_36 <=1 
C105: x2+x38 <=1 
C106: x2+x39-y2_39 <=1 
C107: x2+x41 <=1 
C108: x2+x43-y2_43 <=1 
C109: x2+x46-y2_46 <=1 
C110: x2+x47 <=1 
C111: x2+x48-y2_48 <=1 
C112: x2+x49 <=1 
C113: x2+x50 <=1 
C114: x2+x51-y2_51 <=1 
C115: x2+x52 <=1 
C116: x2+x53 <=1 
C117: x2+x55 <=1 
C118: x2+x56 <=1 
C119: x2+x59-y2_59 <=1 
C120: x2+x60 <=1 
C121: x2+x61-y2_61 <=1 
C122: x2+x62 <=1 
C123: x2+x63 <=1 
C124: x2+x64 <=1 
C125: x3+x4 <=1 
C126: x3+x5 <=1 
C127: x3+x7-y3_7 <=1 
C128: x3+x8-y3_8 <=1 
C129: x3+x9-y3_9 <=1 
C130: x3+x10 <=1 
C131: x3+x11-y3_11 <=1 
C132: x3+x13-y3_13 <=1 
C133: x3+x14 <=1 
C134: x3+x15-y3_15 <=1 
C135: x3+x18-y3_18 <=1 
C136: x3+x19-y3_19 <=1 
C137: x3+x20 <=1 
C138: x3+x21 <=1 
C139: x3+x22 <=1 
C140: x3+x25 <=1 
C141: x3+x26-y3_26 <=1 
C142: x3+x28 <=1 
C143: x3+x30-y3_30 <=1 
C144: x3+x31 <=1 
C145: x3+x33 <=1 
C146: x3+x34 <=1 
C147: x3+x35 <=1 
C148: x3+x36-y3_36 <=1 
C149: x3+x38-y3_38 <=1 
C150: x3+x39-y3_39 <=1 
C151: x3+x42 <=1 
C152: x3+x43 <=1 
C153: x3+x44 <=1 
C154: x3+x45 <=1 
C155: x3+x47-y3_47 <=1 
C156: x3+x50-y3_50 <=1 
C157: x3+x52 <=1 
C158: x3+x55 <=1 
C159: x3+x58 <=1 
C160: x3+x59-y3_59 <=1 
C161: x3+x60 <=1 
C162: x3+x61 <=1 
C163: x3+x62-y3_62 <=1 
C164: x3+x63-y3_63 <=1 
C165: x3+x65 <=1 
C166: x4+x6 <=1 
C167: x4+x7 <=1 
C168: x4+x10-y4_10 <=1 
C169: x4+x12-y4_12 <=1 
C170: x4+x14-y4_14 <=1 
C171: x4+x16-y4_16 <=1 
C172: x4+x19 <=1 
C173: x4+x21 <=1 
C174: x4+x22 <=1 
C175: x4+x23 <=1 
C176: x4+x24-y4_24 <=1 
C177: x4+x25-y4_25 <=1 
C178: x4+x26 <=1 
C179: x4+x27 <=1 
C180: x4+x28 <=1 
C181: x4+x30 <=1 
C182: x4+x33-y4_33 <=1 
C183: x4+x35-y4_35 <=1 
C184: x4+x39-y4_39 <=1 
C185: x4+x41-y4_41 <=1 
C186: x4+x43-y4_43 <=1 
C187: x4+x46 <=1 
C188: x4+x47-y4_47 <=1 
C189: x4+x48 <=1 
C190: x4+x49 <=1 
C191: x4+x50-y4_50 <=1 
C192: x4+x51-y4_51 <=1 
C193: x4+x52-y4_52 <=1 
C194: x4+x53-y4_53 <=1 
C195: x4+x54-y4_54 <=1 
C196: x4+x55-y4_55 <=1 
C197: x4+x57-y4_57 <=1 
C198: x4+x58-y4_58 <=1 
C199: x4+x59 <=1 
C200: x4+x62-y4_62 <=1 
C201: x5+x9-y5_9 <=1 
C202: x5+x10-y5_10 <=1 
C203: x5+x13-y5_13 <=1 
C204: x5+x14-y5_14 <=1 
C205: x5+x15 <=1 
C206: x5+x16-y5_16 <=1 
C207: x5+x18 <=1 
C208: x5+x20 <=1 
C209: x5+x22 <=1 
C210: x5+x23 <=1 
C211: x5+x24 <=1 
C212: x5+x26 <=1 
C213: x5+x27 <=1 
C214: x5+x28-y5_28 <=1 
C215: x5+x30-y5_30 <=1 
C216: x5+x31 <=1 
C217: x5+x32-y5_32 <=1 
C218: x5+x33-y5_33 <=1 
C219: x5+x34-y5_34 <=1 
C220: x5+x35 <=1 
C221: x5+x36 <=1 
C222: x5+x37-y5_37 <=1 
C223: x5+x38 <=1 
C224: x5+x39-y5_39 <=1 
C225: x5+x40 <=1 
C226: x5+x41-y5_41 <=1 
C227: x5+x42 <=1 
C228: x5+x43-y5_43 <=1 
C229: x5+x44 <=1 
C230: x5+x46 <=1 
C231: x5+x47 <=1 
C232: x5+x48 <=1 
C233: x5+x49 <=1 
C234: x5+x50 <=1 
C235: x5+x52-y5_52 <=1 
C236: x5+x54-y5_54 <=1 
C237: x5+x55-y5_55 <=1 
C238: x5+x58-y5_58 <=1 
C239: x5+x61-y5_61 <=1 
C240: x5+x63 <=1 
C241: x5+x64-y5_64 <=1 
C242: x6+x7-y6_7 <=1 
C243: x6+x9 <=1 
C244: x6+x10 <=1 
C245: x6+x11-y6_11 <=1 
C246: x6+x12-y6_12 <=1 
C247: x6+x13-y6_13 <=1 
C248: x6+x16-y6_16 <=1 
C249: x6+x17-y6_17 <=1 
C250: x6+x18-y6_18 <=1 
C251: x6+x19-y6_19 <=1 
C252: x6+x20 <=1 
C253: x6+x22-y6_22 <=1 
C254: x6+x24-y6_24 <=1 
C255: x6+x27 <=1 
C256: x6+x30 <=1 
C257: x6+x31 <=1 
C258: x6+x32-y6_32 <=1 
C259: x6+x33-y6_33 <=1 
C260: x6+x35-y6_35 <=1 
C261: x6+x36-y6_36 <=1 
C262: x6+x38 <=1 
C263: x6+x39 <=1 
C264: x6+x41 <=1 
C265: x6+x43-y6_43 <=1 
C266: x6+x47-y6_47 <=1 
C267: x6+x48 <=1 
C268: x6+x49-y6_49 <=1 
C269: x6+x50 <=1 
C270: x6+x51-y6_51 <=1 
C271: x6+x53-y6_53 <=1 
C272: x6+x54-y6_54 <=1 
C273: x6+x55 <=1 
C274: x6+x56-y6_56 <=1 
C275: x6+x57 <=1 
C276: x6+x60 <=1 
C277: x7+x8 <=1 
C278: x7+x12 <=1 
C279: x7+x13-y7_13 <=1 
C280: x7+x14-y7_14 <=1 
C281: x7+x17-y7_17 <=1 
C282: x7+x20 <=1 
C283: x7+x21 <=1 
C284: x7+x24-y7_24 <=1 
C285: x7+x25 <=1 
C286: x7+x26 <=1 
C287: x7+x34-y7_34 <=1 
C288: x7+x36-y7_36 <=1 
C289: x7+x39-y7_39 <=1 
C290: x7+x40 <=1 
C291: x7+x42-y7_42 <=1 
C292: x7+x43-y7_43 <=1 
C293: x7+x44 <=1 
C294: x7+x45-y7_45 <=1 
C295: x7+x47-y7_47 <=1 
C296: x7+x53-y7_53 <=1 
C297: x7+x54 <=1 
C298: x7+x55-y7_55 <=1 
C299: x7+x56 <=1 
C300: x7+x58 <=1 
C301: x7+x59-y7_59 <=1 
C302: x7+x63-y7_63 <=1 
C303: x7+x64 <=1 
C304: x7+x65 <=1 
C305: x8+x9 <=1 
C306: x8+x11-y8_11 <=1 
C307: x8+x14-y8_14 <=1 
C308: x8+x15-y8_15 <=1 
C309: x8+x16 <=1 
C310: x8+x17-y8_17 <=1 
C311: x8+x19 <=1 
C312: x8+x21 <=1 
C313: x8+x23 <=1 
C314: x8+x26-y8_26 <=1 
C315: x8+x28-y8_28 <=1 
C316: x8+x30-y8_30 <=1 
C317: x8+x31 <=1 
C318: x8+x32-y8_32 <=1 
C319: x8+x37 <=1 
C320: x8+x38-y8_38 <=1 
C321: x8+x39-y8_39 <=1 
C322: x8+x41 <=1 
C323: x8+x43-y8_43 <=1 
C324: x8+x44 <=1 
C325: x8+x46-y8_46 <=1 
C326: x8+x50-y8_50 <=1 
C327: x8+x51-y8_51 <=1 
C328: x8+x53-y8_53 <=1 
C329: x8+x54-y8_54 <=1 
C330: x8+x55-y8_55 <=1 
C331: x8+x56-y8_56 <=1 
C332: x8+x57 <=1 
C333: x8+x58-y8_58 <=1 
C334: x8+x59-y8_59 <=1 
C335: x8+x60 <=1 
C336: x8+x62 <=1 
C337: x8+x63 <=1 
C338: x8+x64 <=1 
C339: x9+x12-y9_12 <=1 
C340: x9+x13-y9_13 <=1 
C341: x9+x14-y9_14 <=1 
C342: x9+x15 <=1 
C343: x9+x17 <=1 
C344: x9+x18 <=1 
C345: x9+x19 <=1 
C346: x9+x20-y9_20 <=1 
C347: x9+x21-y9_21 <=1 
C348: x9+x25-y9_25 <=1 
C349: x9+x27-y9_27 <=1 
C350: x9+x29 <=1 
C351: x9+x31 <=1 
C352: x9+x33 <=1 
C353: x9+x34 <=1 
C354: x9+x35 <=1 
C355: x9+x36-y9_36 <=1 
C356: x9+x39 <=1 
C357: x9+x40-y9_40 <=1 
C358: x9+x42-y9_42 <=1 
C359: x9+x43-y9_43 <=1 
C360: x9+x45 <=1 
C361: x9+x48-y9_48 <=1 
C362: x9+x49 <=1 
C363: x9+x50 <=1 
C364: x9+x51-y9_51 <=1 
C365: x9+x52-y9_52 <=1 
C366: x9+x53-y9_53 <=1 
C367: x9+x55 <=1 
C368: x9+x56-y9_56 <=1 
C369: x9+x60 <=1 
C370: x9+x62 <=1 
C371: x9+x63 <=1 
C372: x9+x64-y9_64 <=1 
C373: x9+x65 <=1 
C374: x10+x12-y10_12 <=1 
C375: x10+x14 <=1 
C376: x10+x18 <=1 
C377: x10+x19 <=1 
C378: x10+x20 <=1 
C379: x10+x22 <=1 
C380: x10+x23-y10_23 <=1 
C381: x10+x24-y10_24 <=1 
C382: x10+x26-y10_26 <=1 
C383: x10+x27 <=1 
C384: x10+x28 <=1 
C385: x10+x29 <=1 
C386: x10+x30 <=1 
C387: x10+x36 <=1 
C388: x10+x39 <=1 
C389: x10+x40 <=1 
C390: x10+x42-y10_42 <=1 
C391: x10+x43 <=1 
C392: x10+x45 <=1 
C393: x10+x46 <=1 
C394: x10+x47 <=1 
C395: x10+x48-y10_48 <=1 
C396: x10+x53 <=1 
C397: x10+x56-y10_56 <=1 
C398: x10+x57 <=1 
C399: x10+x59-y10_59 <=1 
C400: x10+x60 <=1 
C401: x10+x61-y10_61 <=1 
C402: x10+x63-y10_63 <=1 
C403: x10+x64-y10_64 <=1 
C404: x11+x12-y11_12 <=1 
C405: x11+x14-y11_14 <=1 
C406: x11+x15-y11_15 <=1 
C407: x11+x16-y11_16 <=1 
C408: x11+x19 <=1 
C409: x11+x20 <=1 
C410: x11+x21 <=1 
C411: x11+x22-y11_22 <=1 
C412: x11+x23-y11_23 <=1 
C413: x11+x24-y11_24 <=1 
C414: x11+x25-y11_25 <=1 
C415: x11+x27-y11_27 <=1 
C416: x11+x28 <=1 
C417: x11+x29 <=1 
C418: x11+x30 <=1 
C419: x11+x31 <=1 
C420: x11+x33 <=1 
C421: x11+x36-y11_36 <=1 
C422: x11+x37 <=1 
C423: x11+x39-y11_39 <=1 
C424: x11+x41 <=1 
C425: x11+x42-y11_42 <=1 
C426: x11+x43-y11_43 <=1 
C427: x11+x44-y11_44 <=1 
C428: x11+x45-y11_45 <=1 
C429: x11+x48 <=1 
C430: x11+x50 <=1 
C431: x11+x51-y11_51 <=1 
C432: x11+x53 <=1 
C433: x11+x54-y11_54 <=1 
C434: x11+x55-y11_55 <=1 
C435: x11+x57 <=1 
C436: x11+x59 <=1 
C437: x11+x61 <=1 
C438: x11+x62 <=1 
C439: x11+x65-y11_65 <=1 
C440: x12+x16-y12_16 <=1 
C441: x12+x17 <=1 
C442: x12+x18 <=1 
C443: x12+x21-y12_21 <=1 
C444: x12+x22 <=1 
C445: x12+x23-y12_23 <=1 
C446: x12+x24 <=1 
C447: x12+x25-y12_25 <=1 
C448: x12+x27 <=1 
C449: x12+x28 <=1 
C450: x12+x30-y12_30 <=1 
C451: x12+x31 <=1 
C452: x12+x32 <=1 
C453: x12+x33-y12_33 <=1 
C454: x12+x34-y12_34 <=1 
C455: x12+x35-y12_35 <=1 
C456: x12+x36-y12_36 <=1 
C457: x12+x37-y12_37 <=1 
C458: x12+x38-y12_38 <=1 
C459: x12+x39 <=1 
C460: x12+x40-y12_40 <=1 
C461: x12+x42-y12_42 <=1 
C462: x12+x43 <=1 
C463: x12+x45 <=1 
C464: x12+x47-y12_47 <=1 
C465: x12+x48-y12_48 <=1 
C466: x12+x49-y12_49 <=1 
C467: x12+x50 <=1 
C468: x12+x51 <=1 
C469: x12+x52-y12_52 <=1 
C470: x12+x54-y12_54 <=1 
C471: x12+x57 <=1 
C472: x12+x60 <=1 
C473: x12+x61 <=1 
C474: x12+x62-y12_62 <=1 
C475: x12+x63 <=1 
C476: x12+x65 <=1 
C477: x13+x14 <=1 
C478: x13+x16 <=1 
C479: x13+x18 <=1 
C480: x13+x20-y13_20 <=1 
C481: x13+x21-y13_21 <=1 
C482: x13+x22 <=1 
C483: x13+x24 <=1 
C484: x13+x26 <=1 
C485: x13+x27 <=1 
C486: x13+x28-y13_28 <=1 
C487: x13+x29-y13_29 <=1 
C488: x13+x37 <=1 
C489: x13+x38 <=1 
C490: x13+x40-y13_40 <=1 
C491: x13+x41 <=1 
C492: x13+x42 <=1 
C493: x13+x43 <=1 
C494: x13+x44-y13_44 <=1 
C495: x13+x45 <=1 
C496: x13+x46-y13_46 <=1 
C497: x13+x48-y13_48 <=1 
C498: x13+x50-y13_50 <=1 
C499: x13+x51 <=1 
C500: x13+x52-y13_52 <=1 
C501: x13+x53 <=1 
C502: x13+x54-y13_54 <=1 
C503: x13+x56 <=1 
C504: x13+x57-y13_57 <=1 
C505: x13+x59 <=1 
C506: x13+x60-y13_60 <=1 
C507: x13+x61-y13_61 <=1 
C508: x13+x62 <=1 
C509: x13+x63-y13_63 <=1 
C510: x13+x64-y13_64 <=1 
C511: x14+x17 <=1 
C512: x14+x18 <=1 
C513: x14+x19 <=1 
C514: x14+x21 <=1 
C515: x14+x22 <=1 
C516: x14+x24 <=1 
C517: x14+x27 <=1 
C518: x14+x28-y14_28 <=1 
C519: x14+x29 <=1 
C520: x14+x30 <=1 
C521: x14+x31 <=1 
C522: x14+x32-y14_32 <=1 
C523: x14+x33-y14_33 <=1 
C524: x14+x39 <=1 
C525: x14+x40-y14_40 <=1 
C526: x14+x41 <=1 
C527: x14+x42 <=1 
C528: x14+x45 <=1 
C529: x14+x46 <=1 
C530: x14+x48-y14_48 <=1 
C531: x14+x52-y14_52 <=1 
C532: x14+x55-y14_55 <=1 
C533: x14+x56 <=1 
C534: x14+x57-y14_57 <=1 
C535: x14+x58-y14_58 <=1 
C536: x14+x59 <=1 
C537: x14+x61 <=1 
C538: x14+x62-y14_62 <=1 
C539: x14+x64-y14_64 <=1 
C540: x14+x65 <=1 
C541: x15+x16-y15_16 <=1 
C542: x15+x18-y15_18 <=1 
C543: x15+x21-y15_21 <=1 
C544: x15+x22 <=1 
C545: x15+x23-y15_23 <=1 
C546: x15+x24 <=1 
C547: x15+x28-y15_28 <=1 
C548: x15+x30 <=1 
C549: x15+x32-y15_32 <=1 
C550: x15+x34-y15_34 <=1 
C551: x15+x36 <=1 
C552: x15+x37-y15_37 <=1 
C553: x15+x38-y15_38 <=1 
C554: x15+x39 <=1 
C555: x15+x40 <=1 
C556: x15+x41-y15_41 <=1 
C557: x15+x43 <=1 
C558: x15+x44 <=1 
C559: x15+x45-y15_45 <=1 
C560: x15+x46 <=1 
C561: x15+x47-y15_47 <=1 
C562: x15+x48 <=1 
C563: x15+x49 <=1 
C564: x15+x52-y15_52 <=1 
C565: x15+x55 <=1 
C566: x15+x56-y15_56 <=1 
C567: x15+x57 <=1 
C568: x15+x59 <=1 
C569: x15+x60-y15_60 <=1 
C570: x15+x61-y15_61 <=1 
C571: x15+x63 <=1 
C572: x15+x64-y15_64 <=1 
C573: x16+x17 <=1 
C574: x16+x19 <=1 
C575: x16+x21-y16_21 <=1 
C576: x16+x22 <=1 
C577: x16+x24-y16_24 <=1 
C578: x16+x25-y16_25 <=1 
C579: x16+x28 <=1 
C580: x16+x31-y16_31 <=1 
C581: x16+x32-y16_32 <=1 
C582: x16+x33-y16_33 <=1 
C583: x16+x34-y16_34 <=1 
C584: x16+x36-y16_36 <=1 
C585: x16+x38 <=1 
C586: x16+x41-y16_41 <=1 
C587: x16+x42-y16_42 <=1 
C588: x16+x43-y16_43 <=1 
C589: x16+x44 <=1 
C590: x16+x46 <=1 
C591: x16+x47-y16_47 <=1 
C592: x16+x48-y16_48 <=1 
C593: x16+x49 <=1 
C594: x16+x51-y16_51 <=1 
C595: x16+x52 <=1 
C596: x16+x58-y16_58 <=1 
C597: x16+x61 <=1 
C598: x16+x64 <=1 
C599: x17+x18-y17_18 <=1 
C600: x17+x19-y17_19 <=1 
C601: x17+x20-y17_20 <=1 
C602: x17+x21 <=1 
C603: x17+x24-y17_24 <=1 
C604: x17+x25 <=1 
C605: x17+x26 <=1 
C606: x17+x30 <=1 
C607: x17+x31-y17_31 <=1 
C608: x17+x32 <=1 
C609: x17+x33-y17_33 <=1 
C610: x17+x34-y17_34 <=1 
C611: x17+x35-y17_35 <=1 
C612: x17+x36 <=1 
C613: x17+x37 <=1 
C614: x17+x38 <=1 
C615: x17+x39-y17_39 <=1 
C616: x17+x41 <=1 
C617: x17+x42-y17_42 <=1 
C618: x17+x43-y17_43 <=1 
C619: x17+x45-y17_45 <=1 
C620: x17+x46-y17_46 <=1 
C621: x17+x47 <=1 
C622: x17+x48-y17_48 <=1 
C623: x17+x50-y17_50 <=1 
C624: x17+x53-y17_53 <=1 
C625: x17+x54-y17_54 <=1 
C626: x17+x55-y17_55 <=1 
C627: x17+x56-y17_56 <=1 
C628: x17+x57 <=1 
C629: x17+x58 <=1 
C630: x17+x60 <=1 
C631: x17+x63 <=1 
C632: x17+x64 <=1 
C633: x18+x19-y18_19 <=1 
C634: x18+x23 <=1 
C635: x18+x24-y18_24 <=1 
C636: x18+x25-y18_25 <=1 
C637: x18+x26-y18_26 <=1 
C638: x18+x27 <=1 
C639: x18+x29 <=1 
C640: x18+x30 <=1 
C641: x18+x31 <=1 
C642: x18+x32 <=1 
C643: x18+x33 <=1 
C644: x18+x35-y18_35 <=1 
C645: x18+x40 <=1 
C646: x18+x41-y18_41 <=1 
C647: x18+x48-y18_48 <=1 
C648: x18+x49-y18_49 <=1 
C649: x18+x50 <=1 
C650: x18+x51-y18_51 <=1 
C651: x18+x53 <=1 
C652: x18+x54 <=1 
C653: x18+x57 <=1 
C654: x18+x58-y18_58 <=1 
C655: x18+x62-y18_62 <=1 
C656: x18+x63-y18_63 <=1 
C657: x18+x64-y18_64 <=1 
C658: x19+x22-y19_22 <=1 
C659: x19+x24 <=1 
C660: x19+x27-y19_27 <=1 
C661: x19+x28 <=1 
C662: x19+x30 <=1 
C663: x19+x31-y19_31 <=1 
C664: x19+x33 <=1 
C665: x19+x35 <=1 
C666: x19+x36 <=1 
C667: x19+x37 <=1 
C668: x19+x40 <=1 
C669: x19+x41 <=1 
C670: x19+x42-y19_42 <=1 
C671: x19+x43 <=1 
C672: x19+x44 <=1 
C673: x19+x45 <=1 
C674: x19+x48-y19_48 <=1 
C675: x19+x52-y19_52 <=1 
C676: x19+x53 <=1 
C677: x19+x54 <=1 
C678: x19+x55-y19_55 <=1 
C679: x19+x56 <=1 
C680: x19+x57-y19_57 <=1 
C681: x19+x58 <=1 
C682: x19+x59 <=1 
C683: x19+x60-y19_60 <=1 
C684: x19+x61-y19_61 <=1 
C685: x19+x63 <=1 
C686: x19+x65-y19_65 <=1 
C687: x20+x21 <=1 
C688: x20+x22 <=1 
C689: x20+x23 <=1 
C690: x20+x24 <=1 
C691: x20+x26-y20_26 <=1 
C692: x20+x27 <=1 
C693: x20+x29 <=1 
C694: x20+x34-y20_34 <=1 
C695: x20+x35 <=1 
C696: x20+x36 <=1 
C697: x20+x39 <=1 
C698: x20+x41-y20_41 <=1 
C699: x20+x44-y20_44 <=1 
C700: x20+x45 <=1 
C701: x20+x46-y20_46 <=1 
C702: x20+x47-y20_47 <=1 
C703: x20+x48 <=1 
C704: x20+x50 <=1 
C705: x20+x51 <=1 
C706: x20+x52 <=1 
C707: x20+x55 <=1 
C708: x20+x56 <=1 
C709: x20+x57 <=1 
C710: x20+x58-y20_58 <=1 
C711: x20+x61-y20_61 <=1 
C712: x20+x63 <=1 
C713: x20+x64-y20_64 <=1 
C714: x20+x65-y20_65 <=1 
C715: x21+x22 <=1 
C716: x21+x23 <=1 
C717: x21+x26-y21_26 <=1 
C718: x21+x28-y21_28 <=1 
C719: x21+x30 <=1 
C720: x21+x31 <=1 
C721: x21+x32 <=1 
C722: x21+x37 <=1 
C723: x21+x38-y21_38 <=1 
C724: x21+x39-y21_39 <=1 
C725: x21+x40 <=1 
C726: x21+x41-y21_41 <=1 
C727: x21+x43-y21_43 <=1 
C728: x21+x44-y21_44 <=1 
C729: x21+x45-y21_45 <=1 
C730: x21+x46 <=1 
C731: x21+x47-y21_47 <=1 
C732: x21+x48 <=1 
C733: x21+x51 <=1 
C734: x21+x55-y21_55 <=1 
C735: x21+x57-y21_57 <=1 
C736: x21+x58-y21_58 <=1 
C737: x21+x59-y21_59 <=1 
C738: x21+x60-y21_60 <=1 
C739: x21+x64-y21_64 <=1 
C740: x21+x65 <=1 
C741: x22+x23 <=1 
C742: x22+x24 <=1 
C743: x22+x25-y22_25 <=1 
C744: x22+x27-y22_27 <=1 
C745: x22+x30 <=1 
C746: x22+x31-y22_31 <=1 
C747: x22+x32 <=1 
C748: x22+x33-y22_33 <=1 
C749: x22+x34-y22_34 <=1 
C750: x22+x35-y22_35 <=1 
C751: x22+x36-y22_36 <=1 
C752: x22+x37 <=1 
C753: x22+x39-y22_39 <=1 
C754: x22+x40-y22_40 <=1 
C755: x22+x43 <=1 
C756: x22+x44 <=1 
C757: x22+x45-y22_45 <=1 
C758: x22+x49 <=1 
C759: x22+x50 <=1 
C760: x22+x52-y22_52 <=1 
C761: x22+x55-y22_55 <=1 
C762: x22+x56-y22_56 <=1 
C763: x22+x57 <=1 
C764: x22+x59 <=1 
C765: x22+x62 <=1 
C766: x22+x64-y22_64 <=1 
C767: x22+x65-y22_65 <=1 
C768: x23+x25 <=1 
C769: x23+x26 <=1 
C770: x23+x28 <=1 
C771: x23+x30-y23_30 <=1 
C772: x23+x34-y23_34 <=1 
C773: x23+x35 <=1 
C774: x23+x41-y23_41 <=1 
C775: x23+x43-y23_43 <=1 
C776: x23+x45-y23_45 <=1 
C777: x23+x46 <=1 
C778: x23+x47-y23_47 <=1 
C779: x23+x50-y23_50 <=1 
C780: x23+x52 <=1 
C781: x23+x53-y23_53 <=1 
C782: x23+x54 <=1 
C783: x23+x55 <=1 
C784: x23+x56-y23_56 <=1 
C785: x23+x57-y23_57 <=1 
C786: x23+x58 <=1 
C787: x23+x59-y23_59 <=1 
C788: x23+x60 <=1 
C789: x23+x61 <=1 
C790: x23+x62 <=1 
C791: x23+x63-y23_63 <=1 
C792: x23+x65-y23_65 <=1 
C793: x24+x25 <=1 
C794: x24+x27 <=1 
C795: x24+x28 <=1 
C796: x24+x29-y24_29 <=1 
C797: x24+x31 <=1 
C798: x24+x33-y24_33 <=1 
C799: x24+x34 <=1 
C800: x24+x36 <=1 
C801: x24+x38 <=1 
C802: x24+x41-y24_41 <=1 
C803: x24+x42-y24_42 <=1 
C804: x24+x43 <=1 
C805: x24+x45 <=1 
C806: x24+x49 <=1 
C807: x24+x50 <=1 
C808: x24+x55 <=1 
C809: x24+x56-y24_56 <=1 
C810: x24+x57-y24_57 <=1 
C811: x24+x58 <=1 
C812: x24+x59-y24_59 <=1 
C813: x24+x61-y24_61 <=1 
C814: x24+x63 <=1 
C815: x24+x64-y24_64 <=1 
C816: x24+x65-y24_65 <=1 
C817: x25+x26-y25_26 <=1 
C818: x25+x28 <=1 
C819: x25+x29-y25_29 <=1 
C820: x25+x30-y25_30 <=1 
C821: x25+x32 <=1 
C822: x25+x33 <=1 
C823: x25+x35-y25_35 <=1 
C824: x25+x36 <=1 
C825: x25+x37-y25_37 <=1 
C826: x25+x38-y25_38 <=1 
C827: x25+x40 <=1 
C828: x25+x42 <=1 
C829: x25+x43 <=1 
C830: x25+x44-y25_44 <=1 
C831: x25+x47 <=1 
C832: x25+x48 <=1 
C833: x25+x49-y25_49 <=1 
C834: x25+x50 <=1 
C835: x25+x52 <=1 
C836: x25+x54 <=1 
C837: x25+x56 <=1 
C838: x25+x58-y25_58 <=1 
C839: x25+x61-y25_61 <=1 
C840: x25+x62 <=1 
C841: x25+x63 <=1 
C842: x25+x64 <=1 
C843: x25+x65-y25_65 <=1 
C844: x26+x27-y26_27 <=1 
C845: x26+x28-y26_28 <=1 
C846: x26+x30-y26_30 <=1 
C847: x26+x31 <=1 
C848: x26+x33 <=1 
C849: x26+x34 <=1 
C850: x26+x36 <=1 
C851: x26+x37-y26_37 <=1 
C852: x26+x38 <=1 
C853: x26+x39-y26_39 <=1 
C854: x26+x40 <=1 
C855: x26+x41 <=1 
C856: x26+x42-y26_42 <=1 
C857: x26+x46-y26_46 <=1 
C858: x26+x47 <=1 
C859: x26+x48 <=1 
C860: x26+x49 <=1 
C861: x26+x50-y26_50 <=1 
C862: x26+x51-y26_51 <=1 
C863: x26+x52-y26_52 <=1 
C864: x26+x55-y26_55 <=1 
C865: x26+x56-y26_56 <=1 
C866: x26+x57-y26_57 <=1 
C867: x26+x59-y26_59 <=1 
C868: x26+x60 <=1 
C869: x26+x62-y26_62 <=1 
C870: x26+x64 <=1 
C871: x27+x28-y27_28 <=1 
C872: x27+x30 <=1 
C873: x27+x33-y27_33 <=1 
C874: x27+x38-y27_38 <=1 
C875: x27+x39 <=1 
C876: x27+x40 <=1 
C877: x27+x41-y27_41 <=1 
C878: x27+x43-y27_43 <=1 
C879: x27+x44-y27_44 <=1 
C880: x27+x48 <=1 
C881: x27+x50-y27_50 <=1 
C882: x27+x52 <=1 
C883: x27+x53-y27_53 <=1 
C884: x27+x54 <=1 
C885: x27+x55 <=1 
C886: x27+x57-y27_57 <=1 
C887: x27+x58 <=1 
C888: x27+x59 <=1 
C889: x27+x61 <=1 
C890: x27+x62 <=1 
C891: x27+x63 <=1 
C892: x27+x64 <=1 
C893: x27+x65-y27_65 <=1 
C894: x28+x30 <=1 
C895: x28+x31 <=1 
C896: x28+x33-y28_33 <=1 
C897: x28+x35 <=1 
C898: x28+x36-y28_36 <=1 
C899: x28+x38 <=1 
C900: x28+x39 <=1 
C901: x28+x42-y28_42 <=1 
C902: x28+x44 <=1 
C903: x28+x45 <=1 
C904: x28+x46-y28_46 <=1 
C905: x28+x48 <=1 
C906: x28+x50-y28_50 <=1 
C907: x28+x53-y28_53 <=1 
C908: x28+x54-y28_54 <=1 
C909: x28+x56-y28_56 <=1 
C910: x28+x60-y28_60 <=1 
C911: x28+x61 <=1 
C912: x28+x62-y28_62 <=1 
C913: x28+x63 <=1 
C914: x28+x64 <=1 
C915: x29+x30 <=1 
C916: x29+x31-y29_31 <=1 
C917: x29+x33-y29_33 <=1 
C918: x29+x34-y29_34 <=1 
C919: x29+x36-y29_36 <=1 
C920: x29+x39-y29_39 <=1 
C921: x29+x42-y29_42 <=1 
C922: x29+x44-y29_44 <=1 
C923: x29+x45-y29_45 <=1 
C924: x29+x46 <=1 
C925: x29+x49 <=1 
C926: x29+x50 <=1 
C927: x29+x51-y29_51 <=1 
C928: x29+x52-y29_52 <=1 
C929: x29+x55 <=1 
C930: x29+x56-y29_56 <=1 
C931: x29+x60-y29_60 <=1 
C932: x29+x61 <=1 
C933: x29+x63-y29_63 <=1 
C934: x29+x64-y29_64 <=1 
C935: x29+x65 <=1 
C936: x30+x33 <=1 
C937: x30+x35-y30_35 <=1 
C938: x30+x36 <=1 
C939: x30+x39 <=1 
C940: x30+x40 <=1 
C941: x30+x41 <=1 
C942: x30+x42-y30_42 <=1 
C943: x30+x44 <=1 
C944: x30+x45-y30_45 <=1 
C945: x30+x48 <=1 
C946: x30+x49-y30_49 <=1 
C947: x30+x51-y30_51 <=1 
C948: x30+x53 <=1 
C949: x30+x55 <=1 
C950: x30+x56-y30_56 <=1 
C951: x30+x57-y30_57 <=1 
C952: x30+x59-y30_59 <=1 
C953: x30+x61 <=1 
C954: x30+x63 <=1 
C955: x30+x65-y30_65 <=1 
C956: x31+x33 <=1 
C957: x31+x34-y31_34 <=1 
C958: x31+x35 <=1 
C959: x31+x36-y31_36 <=1 
C960: x31+x37 <=1 
C961: x31+x38 <=1 
C962: x31+x40 <=1 
C963: x31+x42 <=1 
C964: x31+x43 <=1 
C965: x31+x44 <=1 
C966: x31+x46-y31_46 <=1 
C967: x31+x47 <=1 
C968: x31+x50 <=1 
C969: x31+x51-y31_51 <=1 
C970: x31+x53 <=1 
C971: x31+x54-y31_54 <=1 
C972: x31+x56-y31_56 <=1 
C973: x31+x57 <=1 
C974: x31+x60-y31_60 <=1 
C975: x31+x61 <=1 
C976: x31+x63-y31_63 <=1 
C977: x31+x65-y31_65 <=1 
C978: x32+x33 <=1 
C979: x32+x34-y32_34 <=1 
C980: x32+x36-y32_36 <=1 
C981: x32+x38 <=1 
C982: x32+x39 <=1 
C983: x32+x40 <=1 
C984: x32+x42-y32_42 <=1 
C985: x32+x43 <=1 
C986: x32+x45 <=1 
C987: x32+x49-y32_49 <=1 
C988: x32+x50-y32_50 <=1 
C989: x32+x51-y32_51 <=1 
C990: x32+x53-y32_53 <=1 
C991: x32+x54 <=1 
C992: x32+x55 <=1 
C993: x32+x57 <=1 
C994: x32+x59 <=1 
C995: x32+x60-y32_60 <=1 
C996: x32+x61 <=1 
C997: x32+x62-y32_62 <=1 
C998: x32+x65 <=1 
C999: x33+x35-y33_35 <=1 
C1000: x33+x37 <=1 
C1001: x33+x39 <=1 
C1002: x33+x41-y33_41 <=1 
C1003: x33+x43 <=1 
C1004: x33+x47-y33_47 <=1 
C1005: x33+x50-y33_50 <=1 
C1006: x33+x52 <=1 
C1007: x33+x55 <=1 
C1008: x33+x57 <=1 
C1009: x33+x60-y33_60 <=1 
C1010: x33+x61-y33_61 <=1 
C1011: x33+x62-y33_62 <=1 
C1012: x33+x63 <=1 
C1013: x34+x37 <=1 
C1014: x34+x38-y34_38 <=1 
C1015: x34+x40-y34_40 <=1 
C1016: x34+x41 <=1 
C1017: x34+x42-y34_42 <=1 
C1018: x34+x43 <=1 
C1019: x34+x44 <=1 
C1020: x34+x45 <=1 
C1021: x34+x46-y34_46 <=1 
C1022: x34+x47 <=1 
C1023: x34+x48-y34_48 <=1 
C1024: x34+x53-y34_53 <=1 
C1025: x34+x55-y34_55 <=1 
C1026: x34+x56 <=1 
C1027: x34+x57-y34_57 <=1 
C1028: x34+x59-y34_59 <=1 
C1029: x34+x62 <=1 
C1030: x34+x63 <=1 
C1031: x34+x64 <=1 
C1032: x35+x39-y35_39 <=1 
C1033: x35+x41 <=1 
C1034: x35+x42 <=1 
C1035: x35+x44 <=1 
C1036: x35+x46 <=1 
C1037: x35+x47 <=1 
C1038: x35+x49 <=1 
C1039: x35+x51 <=1 
C1040: x35+x52 <=1 
C1041: x35+x53-y35_53 <=1 
C1042: x35+x54 <=1 
C1043: x35+x55-y35_55 <=1 
C1044: x35+x56 <=1 
C1045: x35+x58-y35_58 <=1 
C1046: x35+x60-y35_60 <=1 
C1047: x35+x61-y35_61 <=1 
C1048: x35+x63-y35_63 <=1 
C1049: x35+x64-y35_64 <=1 
C1050: x35+x65 <=1 
C1051: x36+x38 <=1 
C1052: x36+x39 <=1 
C1053: x36+x41-y36_41 <=1 
C1054: x36+x43 <=1 
C1055: x36+x45 <=1 
C1056: x36+x47-y36_47 <=1 
C1057: x36+x50-y36_50 <=1 
C1058: x36+x51 <=1 
C1059: x36+x55-y36_55 <=1 
C1060: x36+x56-y36_56 <=1 
C1061: x36+x58 <=1 
C1062: x36+x62-y36_62 <=1 
C1063: x36+x63 <=1 
C1064: x36+x64-y36_64 <=1 
C1065: x36+x65-y36_65 <=1 
C1066: x37+x39-y37_39 <=1 
C1067: x37+x40-y37_40 <=1 
C1068: x37+x41 <=1 
C1069: x37+x44 <=1 
C1070: x37+x45 <=1 
C1071: x37+x46 <=1 
C1072: x37+x47-y37_47 <=1 
C1073: x37+x49-y37_49 <=1 
C1074: x37+x50 <=1 
C1075: x37+x52 <=1 
C1076: x37+x53-y37_53 <=1 
C1077: x37+x54 <=1 
C1078: x37+x55-y37_55 <=1 
C1079: x37+x57-y37_57 <=1 
C1080: x37+x62-y37_62 <=1 
C1081: x37+x63 <=1 
C1082: x37+x65-y37_65 <=1 
C1083: x38+x42-y38_42 <=1 
C1084: x38+x43 <=1 
C1085: x38+x44 <=1 
C1086: x38+x45-y38_45 <=1 
C1087: x38+x48-y38_48 <=1 
C1088: x38+x51-y38_51 <=1 
C1089: x38+x52 <=1 
C1090: x38+x53 <=1 
C1091: x38+x55 <=1 
C1092: x38+x58 <=1 
C1093: x38+x60-y38_60 <=1 
C1094: x38+x61-y38_61 <=1 
C1095: x38+x62-y38_62 <=1 
C1096: x38+x63-y38_63 <=1 
C1097: x38+x65-y38_65 <=1 
C1098: x39+x40-y39_40 <=1 
C1099: x39+x41-y39_41 <=1 
C1100: x39+x42-y39_42 <=1 
C1101: x39+x43 <=1 
C1102: x39+x44-y39_44 <=1 
C1103: x39+x45-y39_45 <=1 
C1104: x39+x47 <=1 
C1105: x39+x48-y39_48 <=1 
C1106: x39+x49-y39_49 <=1 
C1107: x39+x50-y39_50 <=1 
C1108: x39+x52 <=1 
C1109: x39+x54 <=1 
C1110: x39+x55 <=1 
C1111: x39+x59-y39_59 <=1 
C1112: x39+x62-y39_62 <=1 
C1113: x39+x63-y39_63 <=1 
C1114: x39+x64 <=1 
C1115: x39+x65 <=1 
C1116: x40+x41 <=1 
C1117: x40+x42-y40_42 <=1 
C1118: x40+x43-y40_43 <=1 
C1119: x40+x45-y40_45 <=1 
C1120: x40+x46 <=1 
C1121: x40+x50 <=1 
C1122: x40+x51 <=1 
C1123: x40+x53-y40_53 <=1 
C1124: x40+x55 <=1 
C1125: x40+x58 <=1 
C1126: x40+x62-y40_62 <=1 
C1127: x40+x63 <=1 
C1128: x40+x64-y40_64 <=1 
C1129: x41+x44 <=1 
C1130: x41+x45-y41_45 <=1 
C1131: x41+x46 <=1 
C1132: x41+x47 <=1 
C1133: x41+x48 <=1 
C1134: x41+x49 <=1 
C1135: x41+x55-y41_55 <=1 
C1136: x41+x56 <=1 
C1137: x41+x58 <=1 
C1138: x41+x60 <=1 
C1139: x41+x61 <=1 
C1140: x41+x62-y41_62 <=1 
C1141: x41+x63-y41_63 <=1 
C1142: x41+x65-y41_65 <=1 
C1143: x42+x43-y42_43 <=1 
C1144: x42+x46-y42_46 <=1 
C1145: x42+x47-y42_47 <=1 
C1146: x42+x48 <=1 
C1147: x42+x49 <=1 
C1148: x42+x51-y42_51 <=1 
C1149: x42+x52 <=1 
C1150: x42+x53-y42_53 <=1 
C1151: x42+x54-y42_54 <=1 
C1152: x42+x55 <=1 
C1153: x42+x57 <=1 
C1154: x42+x58-y42_58 <=1 
C1155: x42+x61 <=1 
C1156: x42+x62-y42_62 <=1 
C1157: x43+x48 <=1 
C1158: x43+x49 <=1 
C1159: x43+x50 <=1 
C1160: x43+x51 <=1 
C1161: x43+x53-y43_53 <=1 
C1162: x43+x54 <=1 
C1163: x43+x55-y43_55 <=1 
C1164: x43+x57-y43_57 <=1 
C1165: x43+x60 <=1 
C1166: x43+x62 <=1 
C1167: x43+x63-y43_63 <=1 
C1168: x43+x64-y43_64 <=1 
C1169: x43+x65 <=1 
C1170: x44+x46-y44_46 <=1 
C1171: x44+x47 <=1 
C1172: x44+x48-y44_48 <=1 
C1173: x44+x49 <=1 
C1174: x44+x51 <=1 
C1175: x44+x53 <=1 
C1176: x44+x56-y44_56 <=1 
C1177: x44+x60-y44_60 <=1 
C1178: x44+x61-y44_61 <=1 
C1179: x44+x62-y44_62 <=1 
C1180: x44+x63 <=1 
C1181: x44+x64-y44_64 <=1 
C1182: x45+x47 <=1 
C1183: x45+x49-y45_49 <=1 
C1184: x45+x53-y45_53 <=1 
C1185: x45+x55 <=1 
C1186: x45+x56 <=1 
C1187: x45+x57 <=1 
C1188: x45+x58-y45_58 <=1 
C1189: x45+x59-y45_59 <=1 
C1190: x45+x60-y45_60 <=1 
C1191: x45+x61-y45_61 <=1 
C1192: x45+x62 <=1 
C1193: x45+x63-y45_63 <=1 
C1194: x45+x65-y45_65 <=1 
C1195: x46+x47-y46_47 <=1 
C1196: x46+x48-y46_48 <=1 
C1197: x46+x49-y46_49 <=1 
C1198: x46+x50 <=1 
C1199: x46+x51-y46_51 <=1 
C1200: x46+x52 <=1 
C1201: x46+x53 <=1 
C1202: x46+x55 <=1 
C1203: x46+x57-y46_57 <=1 
C1204: x46+x58-y46_58 <=1 
C1205: x46+x59 <=1 
C1206: x46+x60-y46_60 <=1 
C1207: x46+x61 <=1 
C1208: x46+x64 <=1 
C1209: x46+x65 <=1 
C1210: x47+x48 <=1 
C1211: x47+x50-y47_50 <=1 
C1212: x47+x52-y47_52 <=1 
C1213: x47+x53 <=1 
C1214: x47+x54-y47_54 <=1 
C1215: x47+x55 <=1 
C1216: x47+x57-y47_57 <=1 
C1217: x47+x58-y47_58 <=1 
C1218: x47+x59-y47_59 <=1 
C1219: x47+x60-y47_60 <=1 
C1220: x47+x64 <=1 
C1221: x47+x65-y47_65 <=1 
C1222: x48+x49 <=1 
C1223: x48+x50 <=1 
C1224: x48+x52 <=1 
C1225: x48+x53-y48_53 <=1 
C1226: x48+x54 <=1 
C1227: x48+x55-y48_55 <=1 
C1228: x48+x57-y48_57 <=1 
C1229: x48+x58-y48_58 <=1 
C1230: x48+x59-y48_59 <=1 
C1231: x48+x61 <=1 
C1232: x48+x62 <=1 
C1233: x49+x53-y49_53 <=1 
C1234: x49+x54 <=1 
C1235: x49+x55-y49_55 <=1 
C1236: x49+x56 <=1 
C1237: x49+x60 <=1 
C1238: x49+x63 <=1 
C1239: x49+x64-y49_64 <=1 
C1240: x50+x51-y50_51 <=1 
C1241: x50+x52 <=1 
C1242: x50+x53-y50_53 <=1 
C1243: x50+x55-y50_55 <=1 
C1244: x50+x57 <=1 
C1245: x50+x59-y50_59 <=1 
C1246: x50+x63-y50_63 <=1 
C1247: x50+x65 <=1 
C1248: x51+x53 <=1 
C1249: x51+x54 <=1 
C1250: x51+x57-y51_57 <=1 
C1251: x51+x62 <=1 
C1252: x51+x65-y51_65 <=1 
C1253: x52+x54 <=1 
C1254: x52+x55 <=1 
C1255: x52+x56-y52_56 <=1 
C1256: x52+x57-y52_57 <=1 
C1257: x52+x61-y52_61 <=1 
C1258: x52+x62-y52_62 <=1 
C1259: x52+x65 <=1 
C1260: x53+x54 <=1 
C1261: x53+x55 <=1 
C1262: x53+x56-y53_56 <=1 
C1263: x53+x57-y53_57 <=1 
C1264: x53+x58-y53_58 <=1 
C1265: x53+x59-y53_59 <=1 
C1266: x53+x61-y53_61 <=1 
C1267: x53+x63 <=1 
C1268: x53+x64 <=1 
C1269: x53+x65-y53_65 <=1 
C1270: x54+x56-y54_56 <=1 
C1271: x54+x57-y54_57 <=1 
C1272: x54+x58 <=1 
C1273: x54+x59-y54_59 <=1 
C1274: x54+x60-y54_60 <=1 
C1275: x54+x61 <=1 
C1276: x54+x63-y54_63 <=1 
C1277: x54+x64-y54_64 <=1 
C1278: x54+x65 <=1 
C1279: x55+x60 <=1 
C1280: x55+x62 <=1 
C1281: x55+x63 <=1 
C1282: x55+x64 <=1 
C1283: x55+x65-y55_65 <=1 
C1284: x56+x57 <=1 
C1285: x56+x58 <=1 
C1286: x56+x60 <=1 
C1287: x56+x61-y56_61 <=1 
C1288: x56+x64-y56_64 <=1 
C1289: x56+x65-y56_65 <=1 
C1290: x57+x59 <=1 
C1291: x57+x60 <=1 
C1292: x57+x61 <=1 
C1293: x57+x62-y57_62 <=1 
C1294: x58+x60-y58_60 <=1 
C1295: x58+x64-y58_64 <=1 
C1296: x58+x65 <=1 
C1297: x59+x60-y59_60 <=1 
C1298: x59+x62-y59_62 <=1 
C1299: x59+x63-y59_63 <=1 
C1300: x59+x64 <=1 
C1301: x60+x61-y60_61 <=1 
C1302: x60+x64 <=1 
C1303: x60+x65 <=1 
C1304: x61+x63 <=1 
C1305: x61+x65-y61_65 <=1 
C1306: x62+x64 <=1 
C1307: x63+x64 <=1 
C1308: x63+x65 <=1 

binary
x0
x1
x2
x3
x4
x5
x6
x7
x8
x9
x10
x11
x12
x13
x14
x15
x16
x17
x18
x19
x20
x21
x22
x23
x24
x25
x26
x27
x28
x29
x30
x31
x32
x33
x34
x35
x36
x37
x38
x39
x40
x41
x42
x43
x44
x45
x46
x47
x48
x49
x50
x51
x52
x53
x54
x55
x56
x57
x58
x59
x60
x61
x62
x63
x64
x65
