problem_generation/data/GISP/train/er_n=66_m=1308_p=0.60_SET2_setparam=100.00_alpha=0.50_533.sol
objective value:                                 1265
x0                                                  1 	(obj:100)
x1                                                  1 	(obj:100)
x6                                                  1 	(obj:100)
x18                                                 1 	(obj:100)
x21                                                 1 	(obj:100)
x24                                                 1 	(obj:100)
x26                                                 1 	(obj:100)
x44                                                 1 	(obj:100)
x52                                                 1 	(obj:100)
x56                                                 1 	(obj:100)
x59                                                 1 	(obj:100)
x61                                                 1 	(obj:100)
x62                                                 1 	(obj:100)
y18_26                                              1 	(obj:-1)
y44_56                                              1 	(obj:-1)
y21_59                                              1 	(obj:-1)
y6_56                                               1 	(obj:-1)
y1_62                                               1 	(obj:-1)
y6_24                                               1 	(obj:-1)
y24_59                                              1 	(obj:-1)
y21_26                                              1 	(obj:-1)
y1_61                                               1 	(obj:-1)
y6_18                                               1 	(obj:-1)
y26_62                                              1 	(obj:-1)
y18_62                                              1 	(obj:-1)
y26_52                                              1 	(obj:-1)
y1_18                                               1 	(obj:-1)
y56_61                                              1 	(obj:-1)
y26_56                                              1 	(obj:-1)
y18_24                                              1 	(obj:-1)
y59_62                                              1 	(obj:-1)
y21_44                                              1 	(obj:-1)
y0_21                                               1 	(obj:-1)
y1_59                                               1 	(obj:-1)
y24_61                                              1 	(obj:-1)
y24_56                                              1 	(obj:-1)
y0_44                                               1 	(obj:-1)
y1_44                                               1 	(obj:-1)
y26_59                                              1 	(obj:-1)
y0_52                                               1 	(obj:-1)
y52_62                                              1 	(obj:-1)
y44_62                                              1 	(obj:-1)
y0_6                                                1 	(obj:-1)
y52_61                                              1 	(obj:-1)
y1_6                                                1 	(obj:-1)
y0_1                                                1 	(obj:-1)
y52_56                                              1 	(obj:-1)
y44_61                                              1 	(obj:-1)
